Academic license - for non-commercial use only
Optimize a model with 30075 rows, 160051 columns and 335123 nonzeros
Variable types: 160025 continuous, 26 integer (0 binary)
Coefficient statistics:
  Matrix range     [1e+00, 7e+02]
  Objective range  [5e-02, 8e+01]
  Bounds range     [6e-04, 1e+01]
  RHS range        [0e+00, 0e+00]
Found heuristic solution: objective 1144.7008000
Presolve removed 7626 rows and 74101 columns
Presolve time: 0.79s
Presolved: 22449 rows, 85950 columns, 196181 nonzeros
Variable types: 85924 continuous, 26 integer (26 binary)
Deterministic concurrent LP optimizer: primal and dual simplex
Showing first log only...
Concurrent spin time: 0.38s

Solved with dual simplex

Root relaxation: objective 5.241983e+02, 11672 iterations, 1.20 seconds
    Nodes    |    Current Node    |     Objective Bounds      |     Work
 Expl Unexpl |  Obj  Depth IntInf | Incumbent    BestBd   Gap | It/Node Time
     0     0  524.19833    0    8 1144.70080  524.19833  54.2%     -    2s
H    0     0                     550.8302290  524.19833  4.83%     -    2s
     0     0  524.22642    0   20  550.83023  524.22642  4.83%     -    3s
     0     0  524.28227    0   18  550.83023  524.28227  4.82%     -    3s
     0     0  524.28823    0   16  550.83023  524.28823  4.82%     -    3s
     0     0  524.29455    0   16  550.83023  524.29455  4.82%     -    4s
     0     0  524.29455    0   16  550.83023  524.29455  4.82%     -    4s
     0     0  524.31378    0   11  550.83023  524.31378  4.81%     -    7s
     0     0  524.31843    0    8  550.83023  524.31843  4.81%     -    9s
     0     0  524.45638    0    8  550.83023  524.45638  4.79%     -   15s
     0     0  524.79851    0    8  550.83023  524.79851  4.73%     -   21s
     0     0  525.63973    0    8  550.83023  525.63973  4.57%     -   32s
     0     0  527.43095    0    8  550.83023  527.43095  4.25%     -   42s
     0     0  529.55445    0    8  550.83023  529.55445  3.86%     -   50s
     0     0  531.37510    0    8  550.83023  531.37510  3.53%     -   59s
     0     0  532.68829    0    8  550.83023  532.68829  3.29%     -   69s
     0     0  533.66349    0    8  550.83023  533.66349  3.12%     -   74s
     0     0  534.62930    0    8  550.83023  534.62930  2.94%     -   82s
     0     0  535.62113    0    8  550.83023  535.62113  2.76%     -   96s
     0     0  536.99387    0    8  550.83023  536.99387  2.51%     -  105s
     0     0  537.79704    0    8  550.83023  537.79704  2.37%     -  119s
     0     0  539.51507    0    8  550.83023  539.51507  2.05%     -  135s
     0     0  542.46835    0    8  550.83023  542.46835  1.52%     -  158s
     0     0  543.97601    0    7  550.83023  543.97601  1.24%     -  169s
     0     0  544.58448    0    3  550.83023  544.58448  1.13%     -  175s
     0     0  544.82759    0    3  550.83023  544.82759  1.09%     -  203s
     0     0  544.98879    0    4  550.83023  544.98879  1.06%     -  206s
     0     0  545.13814    0    2  550.83023  545.13814  1.03%     -  208s
     0     0  545.24596    0    2  550.83023  545.24596  1.01%     -  209s
     0     0  545.39624    0    2  550.83023  545.39624  0.99%     -  210s
     0     0  545.46152    0    2  550.83023  545.46152  0.97%     -  212s
     0     0  545.48490    0    2  550.83023  545.48490  0.97%     -  212s
     0     0  545.48978    0    2  550.83023  545.48978  0.97%     -  213s
     0     0  545.49395    0    1  550.83023  545.49395  0.97%     -  213s
     0     0  545.49395    0    1  550.83023  545.49395  0.97%     -  213s
     0     0  549.85600    0    1  550.83023  549.85600  0.18%     -  218s
     0     0  549.92171    0    1  550.83023  549.92171  0.16%     -  219s
     0     0  549.93470    0    1  550.83023  549.93470  0.16%     -  220s
     0     0  549.93470    0    1  550.83023  549.93470  0.16%     -  221s
H    0     0                     549.9788083  549.93470  0.01%     -  221s
Cutting planes:
  Implied bound: 50920
  MIR: 80
  Flow cover: 100
Explored 1 nodes (256945 simplex iterations) in 221.52 seconds
Thread count was 4 (of 4 available processors)

Solution count 3: 549.979 550.83 1144.7 

Optimal solution found (tolerance 1.00e-04)
Best objective 5.499788083244e+02, best bound 5.499347002475e+02, gap 0.0080%
Gurobi status= 2